p4/p4_prob2.lp
Maximize 
 obj: t
Subject To
 c1: t - a - 3b + c <= 0
 c2: t + a + 3b - c <= 0
 c3: t - 2a - 5b + c <= 0
 c4: t + 2a + 5b - c <= 0
 c5: t - 3a - 7b + c <= 0
 c6: t + 3a + 7b - c <= 0
 c7: t - 5a - 11b + c <= 0
 c8: t + 5a + 11b - c <= 0
 c9: t - 7a - 14b + c <= 0
 c10: t + 7a + 14b - c <= 0
 c11: t - 8a - 15b + c <= 0
 c12: t + 8a + 15b - c <= 0
 c13: t - 10a - 19b + c <= 0
 c14: t + 10a + 19b - c <= 0
Bounds
End
